
Gurobi 9.0.1 (linux64) logging started Thu Apr 30 21:14:53 2020

Gurobi Optimizer version 9.0.1 build v9.0.1rc0 (linux64)
Optimize a model with 32222 rows, 27380 columns and 603960 nonzeros
Model fingerprint: 0x990500a7
Variable types: 0 continuous, 27380 integer (27342 binary)
Coefficient statistics:
  Matrix range     [1e+00, 2e+01]
  Objective range  [5e+00, 1e+02]
  Bounds range     [1e+00, 1e+00]
  RHS range        [1e+00, 1e+00]

User MIP start produced solution with objective 1167 (0.90s)
Loaded user MIP start with objective 1167

Presolve removed 14186 rows and 9388 columns (presolve time = 5s) ...
Presolve removed 14228 rows and 9448 columns (presolve time = 11s) ...
Presolve removed 14228 rows and 9448 columns
Presolve time: 10.58s
Presolved: 17994 rows, 17932 columns, 501040 nonzeros
Variable types: 0 continuous, 17932 integer (17896 binary)

Root simplex log...

Iteration    Objective       Primal Inf.    Dual Inf.      Time
       0    0.0000000e+00   1.940000e+02   0.000000e+00     13s
    2107    5.4630009e+02   4.386981e+03   0.000000e+00     15s
    3850    5.5201898e+02   8.848386e+03   0.000000e+00     20s
    5344    5.5710489e+02   6.636141e+03   0.000000e+00     25s
    6672    5.6249459e+02   1.667142e+05   0.000000e+00     30s
    7917    5.6542554e+02   3.436822e+03   0.000000e+00     35s
    8996    5.6687764e+02   6.565504e+03   0.000000e+00     40s
   10158    5.6781461e+02   1.082993e+04   0.000000e+00     45s
   11237    5.7002210e+02   4.511632e+03   0.000000e+00     50s
   12316    5.7237765e+02   2.436874e+05   0.000000e+00     55s
   13312    5.7487955e+02   5.554755e+04   0.000000e+00     60s
   14227    5.7603840e+02   3.208099e+04   0.000000e+00     65s
   15140    5.7684623e+02   1.422059e+04   0.000000e+00     70s
   16053    5.7742286e+02   3.690248e+05   0.000000e+00     75s
   16883    5.7805395e+02   1.187735e+04   0.000000e+00     80s
   17796    5.7905392e+02   3.476367e+03   0.000000e+00     85s
   18626    5.7939842e+02   2.180784e+03   0.000000e+00     90s
   19456    5.7969006e+02   7.217696e+02   0.000000e+00     95s
   20203    5.8106589e+02   2.685867e+03   0.000000e+00    101s
   20864    5.8149364e+02   6.774522e+02   0.000000e+00    105s
   21528    5.8183676e+02   1.221041e+03   0.000000e+00    110s
   22192    5.8237626e+02   9.152033e+03   0.000000e+00    115s
   22856    5.8306590e+02   1.251827e+03   0.000000e+00    121s
   23546    5.8382452e+02   4.694381e+02   0.000000e+00    126s
   24121    5.8421859e+02   4.475757e+03   0.000000e+00    130s
Warning: Markowitz tolerance tightened to 0.03125
   24779    5.8464592e+02   3.162459e+02   0.000000e+00    135s
   25528    5.8529351e+02   2.583585e+02   0.000000e+00    141s
   26183    5.8551905e+02   3.960506e+02   0.000000e+00    146s
   26968    5.8567494e+02   0.000000e+00   0.000000e+00    151s

Root relaxation: objective 5.856748e+02, 26968 iterations, 139.44 seconds

    Nodes    |    Current Node    |     Objective Bounds      |     Work
 Expl Unexpl |  Obj  Depth IntInf | Incumbent    BestBd   Gap | It/Node Time

     0     0  585.67482    0 2553 1167.00000  585.67482  49.8%     -  160s
     0     0  604.05186    0 2554 1167.00000  604.05186  48.2%     -  262s
     0     0  604.84013    0 2539 1167.00000  604.84013  48.2%     -  287s
     0     0  605.06227    0 2500 1167.00000  605.06227  48.2%     -  297s
     0     0  605.06963    0 2515 1167.00000  605.06963  48.2%     -  299s
     0     0  605.06963    0 2517 1167.00000  605.06963  48.2%     -  301s
     0     0  616.38146    0 2615 1167.00000  616.38146  47.2%     -  425s
     0     0  617.35229    0 2623 1167.00000  617.35229  47.1%     -  464s
     0     0  617.62156    0 2600 1167.00000  617.62156  47.1%     -  483s
     0     0  617.74934    0 2616 1167.00000  617.74934  47.1%     -  493s
     0     0  617.79445    0 2610 1167.00000  617.79445  47.1%     -  500s
     0     0  617.79880    0 2618 1167.00000  617.79880  47.1%     -  503s
     0     0  626.03805    0 2623 1167.00000  626.03805  46.4%     -  671s
     0     0  626.87493    0 2589 1167.00000  626.87493  46.3%     -  721s
     0     0  627.01282    0 2624 1167.00000  627.01282  46.3%     -  737s
     0     0  627.02539    0 2642 1167.00000  627.02539  46.3%     -  743s
     0     0  627.03153    0 2640 1167.00000  627.03153  46.3%     -  747s
     0     0  629.96901    0 2695 1167.00000  629.96901  46.0%     -  885s
     0     0  630.18574    0 2719 1167.00000  630.18574  46.0%     -  921s
     0     0  630.21960    0 2722 1167.00000  630.21960  46.0%     -  929s
     0     0  630.23739    0 2715 1167.00000  630.23739  46.0%     -  935s
     0     0  630.24257    0 2718 1167.00000  630.24257  46.0%     -  939s
     0     0  631.77437    0 2726 1167.00000  631.77437  45.9%     - 1030s
     0     0  631.98852    0 2717 1167.00000  631.98852  45.8%     - 1077s
     0     0  632.03601    0 2734 1167.00000  632.03601  45.8%     - 1086s
     0     0  632.05105    0 2737 1167.00000  632.05105  45.8%     - 1092s
     0     0  632.05547    0 2732 1167.00000  632.05547  45.8%     - 1095s
     0     0  633.08930    0 2731 1167.00000  633.08930  45.8%     - 1182s
     0     0  633.19711    0 2727 1167.00000  633.19711  45.7%     - 1229s
     0     0  633.23499    0 2734 1167.00000  633.23499  45.7%     - 1238s
     0     0  633.25587    0 2725 1167.00000  633.25587  45.7%     - 1245s
     0     0  633.25929    0 2735 1167.00000  633.25929  45.7%     - 1248s
     0     0  633.98089    0 2718 1167.00000  633.98089  45.7%     - 1294s
     0     0  634.06339    0 2730 1167.00000  634.06339  45.7%     - 1310s
     0     0  634.08902    0 2742 1167.00000  634.08902  45.7%     - 1319s
     0     0  634.09958    0 2736 1167.00000  634.09958  45.7%     - 1325s
     0     0  634.65258    0 2741 1167.00000  634.65258  45.6%     - 1366s
     0     0  634.84427    0 2753 1167.00000  634.84427  45.6%     - 1388s
     0     0  634.88819    0 2739 1167.00000  634.88819  45.6%     - 1396s
     0     0  634.90034    0 2762 1167.00000  634.90034  45.6%     - 1402s
     0     0  635.56362    0 2745 1167.00000  635.56362  45.5%     - 1450s
     0     0  635.69702    0 2752 1167.00000  635.69702  45.5%     - 1506s
     0     0  635.75799    0 2753 1167.00000  635.75799  45.5%     - 1517s
     0     0  635.76893    0 2762 1167.00000  635.76893  45.5%     - 1523s
     0     0  637.75626    0 2658 1167.00000  637.75626  45.4%     - 1620s
     0     0  638.03478    0 2649 1167.00000  638.03478  45.3%     - 1650s
     0     0  638.09390    0 2639 1167.00000  638.09390  45.3%     - 1667s
     0     0  638.12273    0 2642 1167.00000  638.12273  45.3%     - 1675s
     0     0  638.13807    0 2647 1167.00000  638.13807  45.3%     - 1682s
     0     0  638.14381    0 2659 1167.00000  638.14381  45.3%     - 1687s
     0     0  639.37413    0 2670 1167.00000  639.37413  45.2%     - 1746s
     0     0  639.51572    0 2678 1167.00000  639.51572  45.2%     - 1770s
     0     0  639.54361    0 2683 1167.00000  639.54361  45.2%     - 1779s
     0     0  639.55505    0 2701 1167.00000  639.55505  45.2%     - 1785s
     0     0  639.96994    0 2702 1167.00000  639.96994  45.2%     - 1821s
     0     0  640.06776    0 2698 1167.00000  640.06776  45.2%     - 1843s
     0     0  640.08512    0 2686 1167.00000  640.08512  45.2%     - 1851s
     0     0  640.09180    0 2700 1167.00000  640.09180  45.2%     - 1855s
     0     0  640.30994    0 2711 1167.00000  640.30994  45.1%     - 1886s
     0     0  640.35268    0 2696 1167.00000  640.35268  45.1%     - 1902s
     0     0  640.36237    0 2730 1167.00000  640.36237  45.1%     - 1908s
     0     0  640.79415    0 2664 1167.00000  640.79415  45.1%     - 1944s
     0     0  640.88770    0 2669 1167.00000  640.88770  45.1%     - 2025s
     0     0  640.92526    0 2700 1167.00000  640.92526  45.1%     - 2035s
     0     0  640.94725    0 2708 1167.00000  640.94725  45.1%     - 2042s
     0     0  640.95427    0 2719 1167.00000  640.95427  45.1%     - 2047s
     0     0  641.56330    0 2717 1167.00000  641.56330  45.0%     - 2092s
     0     0  641.66550    0 2712 1167.00000  641.66550  45.0%     - 2113s
     0     0  641.71186    0 2709 1167.00000  641.71186  45.0%     - 2121s
     0     0  641.72514    0 2713 1167.00000  641.72514  45.0%     - 2128s
     0     0  641.99117    0 2719 1167.00000  641.99117  45.0%     - 2159s
     0     0  642.03307    0 2716 1167.00000  642.03307  45.0%     - 2175s
     0     0  642.04166    0 2713 1167.00000  642.04166  45.0%     - 2181s
     0     0  642.31776    0 2707 1167.00000  642.31776  45.0%     - 2212s
     0     0  642.37991    0 2694 1167.00000  642.37991  45.0%     - 2232s
     0     0  642.40231    0 2722 1167.00000  642.40231  45.0%     - 2242s
     0     0  642.40705    0 2734 1167.00000  642.40705  45.0%     - 2246s
     0     0  642.67782    0 2717 1167.00000  642.67782  44.9%     - 2283s
     0     0  642.78183    0 2722 1167.00000  642.78183  44.9%     - 2306s
     0     0  642.86084    0 2717 1167.00000  642.86084  44.9%     - 2320s
     0     0  642.87298    0 2722 1167.00000  642.87298  44.9%     - 2327s
     0     0  643.18151    0 2725 1167.00000  643.18151  44.9%     - 2362s
     0     0  643.23532    0 2724 1167.00000  643.23532  44.9%     - 2380s
     0     0  643.25022    0 2746 1167.00000  643.25022  44.9%     - 2387s
     0     0  643.38098    0 2731 1167.00000  643.38098  44.9%     - 2410s
     0     0  643.40624    0 2739 1167.00000  643.40624  44.9%     - 2425s
     0     0  643.41178    0 2745 1167.00000  643.41178  44.9%     - 2430s
     0     0  643.55705    0 2763 1167.00000  643.55705  44.9%     - 2458s
     0     0  643.55705    0 2760 1167.00000  643.55705  44.9%     - 2482s
     0     2  643.55911    0 2760 1167.00000  643.55911  44.9%     - 2730s
     1     3  646.18324    1 2711 1167.00000  643.55911  44.9% 12371 2861s
     2     4  649.95243    1 2492 1167.00000  646.18324  44.6% 17628 3101s
     3     5  646.64736    2 2722 1167.00000  646.18324  44.6% 12519 3124s
     4     6  667.07735    2 2432 1167.00000  646.64736  44.6% 18931 3527s
     5     7  646.78523    3 2730 1167.00000  646.64736  44.6% 15433 3541s

Cutting planes:
  MIR: 115
  StrongCG: 14
  Zero half: 38
  Mod-K: 5
  RLT: 1316

Explored 6 nodes (275875 simplex iterations) in 3600.09 seconds
Thread count was 1 (of 40 available processors)

Solution count 1: 1167 

Time limit reached
Best objective 1.167000000000e+03, best bound 6.470000000000e+02, gap 44.5587%

User-callback calls 14411, time in user-callback 0.04 sec
